18 1
24 7
4 3
39 6
16 8
24 1
35 0
14 5
33 9
23 6
37 8
32 2
20 2
15 6
32 6
5 9
26 0
18 6
7 2
41 5
33 1
27 5
42 6
1 2
1 3
13 7
5 8
7 4
27 9
26 6
27 1
38 5
29 4
44 9
17 1
35 5
10 5
40 5
35 2
8 7
16 2
13 9
13 1
44 3
43 5
8 6
32 8
8 2
33 4
40 4
22 5
17 3
34 3
20 9
39 2
2 0
31 5
2 5
17 5
2 8
25 9
6 6
36 5
23 9
44 6
32 3
43 4
42 8
37 6
32 9
32 0
12 5
16 1
43 8
30 6
14 7
37 3
4 5
30 4
28 5
11 2
15 8
19 4
34 1
14 2
18 5
24 6
40 9
4 2
44 2
17 7
35 7
42 9
2 2
19 7
3 0
26 2
3 9
8 3
19 2
